100
128
43
27
24
10
44
54
42
33
44
42
55
20
28
34
5
34
19
25
53
59
5
32
11
41
26
51
55
17
56
16
17
51
21
9
8
28
23
25
8
11
24
59
28
52
15
8
27
47
23
10
50
21
51
10
53
41
41
52
9
10
50
20
16
16
24
15
13
37
52
17
12
39
19
24
8
17
30
38
20
21
32
25
14
16
59
51
42
21
17
2
45
1
59
16
23
51
23
23
24
53